nApps = 210
nRes = 9
nActs = 420
nNetworks = 6

assignmentToResources = [1,1,3,3,1,3,2,1,3,2,3,3,2,3,3,2,2,2,1,1,2,2,1,2,2,2,2,1,3,2,2,3,2,2,2,1,3,1,1,2,3,1,2,1,1,1,1,2,1,2,3,3,3,1,2,2,2,1,2,2,3,1,2,1,1,3,3,1,1,1,3,1,2,2,2,1,2,2,2,1,2,1,2,2,2,3,2,3,2,3,3,2,2,1,2,2,1,2,1,1,4,4,4,4,4,4,4,4,4,4,6,6,6,5,6,6,5,5,6,6,6,6,5,5,5,5,6,6,6,6,5,5,4,4,4,5,5,5,5,5,5,4,4,6,6,6,6,5,5,6,6,6,6,6,5,5,4,6,6,6,6,6,4,4,4,4,5,5,6,6,4,4,4,4,4,4,4,4,5,4,4,4,5,5,5,5,6,6,6,6,4,4,5,5,4,4,4,4,5,6,6,4,6,6,4,4,4,4,4,4,4,6,6,4,5,5,5,5,4,5,4,4,5,5,5,5,5,5,5,5,6,6,4,4,5,5,4,4,4,8,5,9,6,8,4,9,6,7,4,9,6,7,4,9,6,8,5,7,6,8,5,9,5,7,4,8,4,9,4,8,5,9,6,7,5,9,6,8,6,7,4,8,8,9,8,8,8,8,9,8,8,9,8,7,8,7,8,8,7,7,7,8,8,7,7,9,9,7,7,8,7,8,7,7,8,8,9,9,7,9,9,7,7,8,8,7,8,8,8,9,7,8,8,8,8,8,7,7,9,7,8,8,7,8,9,9,8,8,9,9,7,8,8,8,9,8,9,8,8,8,7,8,8,8,7,7,9,9,7,8,8,8,8,9,7,7,9,8,9,9,9,8,8,8,8,8,8,8,8,8,8,8,9,7,7,9,9,9,7,7,8,7,8,8,7,9,9,9,7,7,7,7,8,7,8,8,7,7,8,8];

processingTimes = [88,112,120,128,112,56,88,128,120,136,120,64,80,64,160,48,120,128,112,136,112,128,128,136,160,136,112,168,168,136,88,160,56,160,104,136,88,144,144,128,104,112,128,64,104,136,104,120,48,136,152,128,136,128,160,152,136,120,48,72,48,120,128,112,104,104,120,96,120,112,136,120,152,152,128,128,56,128,152,64,56,128,136,56,104,112,136,64,160,160,120,128,80,136,56,144,112,112,112,56,3,3,4,500,500,3,500,3,500,500,3,500,8,3,3,3,4,8,4,7,500,3,500,4,4,4,5,4,4,500,4,4,3,500,3,3,4,3,4,23,3,4,8,4,4,4,3,3,8,5,5,3,500,500,5,3,3,4,100,3,3,3,4,5,500,500,3,3,3,3,4,3,3,500,5,500,3,500,3,500,4,4,3,4,4,4,4,4,3,3,500,4,3,3,500,4,500,13,8,3,3,500,3,5,4,4,4,3,3,4,500,5,3,3,3,3,3,500,4,5,3,3,3,3,3,500,5,13,13,3,4,4,13,13,4,3,4,500,3,3,3,3,3,3,3,3,6,6,5,5,500,500,4,4,3,3,4,4,5,5,3,3,3,3,4,4,3,3,3,3,3,3,3,3,3,3,5,5,500,500,500,500,3,3,4,500,500,3,500,3,500,500,3,500,8,3,3,3,4,8,4,7,500,3,500,4,4,4,5,4,4,500,4,4,3,500,3,3,4,3,4,23,3,4,8,4,4,4,3,3,8,5,5,3,500,500,5,3,3,4,100,3,3,3,4,5,500,500,3,3,3,3,4,3,3,500,5,500,3,500,3,500,4,4,3,4,4,4,4,4,3,3,500,4,3,3,500,4,500,13,8,3,3,500,3,5,4,4,4,3,3,4,500,5,3,3,3,3,3,500,4,5,3,3,3,3,3,500,5,13,13,3,4,4,13,13,4,3,4,500];

periods = [100000,20000,100000,100000,20000,10000,20000,10000,100000,100000,5000,20000,10000,10000,10000,100000,20000,100000,100000,20000,100000,100000,10000,20000,100000,5000,20000,10000,100000,10000,20000,100000,2000,10000,100000,10000,1000,10000,10000,10000,20000,20000,10000,10000,10000,5000,20000,20000,20000,20000,10000,20000,10000,20000,10000,100000,10000,10000,100000,1000,100000,50000,20000,20000,10000,20000,5000,100000,5000,100000,1000,1000,20000,20000,100000,100000,20000,100000,20000,100000,10000,20000,10000,10000,20000,10000,20000,10000,20000,10000,10000,100000,20000,10000,20000,5000,5000,20000,100000,50000,100000,100000,20000,20000,20000,20000,20000,20000,20000,20000,10000,10000,10000,20000,100000,100000,100000,100000,5000,5000,5000,20000,10000,10000,10000,10000,10000,10000,10000,10000,100000,20000,100000,100000,100000,100000,100000,20000,5000,20000,20000,10000,10000,100000,100000,100000,100000,10000,20000,100000,100000,100000,100000,100000,2000,100000,10000,1000,1000,1000,1000,1000,10000,10000,10000,10000,10000,10000,20000,20000,20000,10000,10000,10000,5000,20000,20000,20000,20000,20000,20000,20000,20000,20000,20000,20000,10000,10000,20000,20000,20000,20000,10000,10000,10000,10000,10000,10000,1000,100000,100000,50000,20000,20000,100000,100000,100000,100000,5000,5000,5000,1000,1000,1000,20000,20000,100000,100000,100000,10000,20000,20000,10000,10000,10000,10000,20000,20000,20000,20000,10000,10000,10000,10000,20000,5000,5000,50000,20000,20000,20000,20000,20000,20000,100000,100000,100000,100000,100000,100000,100000,100000,5000,5000,5000,5000,5000,5000,10000,10000,10000,10000,100000,100000,100000,100000,10000,10000,10000,10000,10000,10000,10000,10000,20000,20000,10000,10000,10000,10000,20000,20000,100000,100000,20000,20000,20000,20000,20000,20000,20000,20000,10000,10000,10000,20000,100000,100000,100000,100000,5000,5000,5000,20000,10000,10000,10000,10000,10000,10000,10000,10000,100000,20000,100000,100000,100000,100000,100000,20000,5000,20000,20000,10000,10000,100000,100000,100000,100000,10000,20000,100000,100000,100000,100000,100000,2000,100000,10000,1000,1000,1000,1000,1000,10000,10000,10000,10000,10000,10000,20000,20000,20000,10000,10000,10000,5000,20000,20000,20000,20000,20000,20000,20000,20000,20000,20000,20000,10000,10000,20000,20000,20000,20000,10000,10000,10000,10000,10000,10000,1000,100000,100000,50000,20000,20000,100000,100000,100000,100000,5000,5000,5000,1000,1000,1000,20000,20000,100000,100000,100000,10000,20000,20000,10000,10000,10000,10000,20000,20000,20000,20000,10000,10000,10000,10000,20000,5000,5000,50000];

assignmentToClusters = [1,2,3,4,5,6,7,8,9,10,11,12,13,14,15,16,17,18,19,20,18,21,22,2,18,11,23,24,25,26,27,28,29,30,18,26,31,32,33,34,2,35,36,37,38,11,39,40,41,42,14,27,26,43,14,44,26,45,46,47,3,48,49,50,51,52,53,54,55,3,56,57,58,59,18,18,60,61,62,3,63,49,64,65,66,30,49,14,67,22,38,68,2,26,69,70,11,71,4,72,73,74,75,76,77,78,79,80,81,82,83,84,85,86,87,88,89,90,91,92,93,94,95,96,97,98,99,100,101,102,103,104,105,106,107,108,109,110,111,112,113,114,115,116,117,118,119,120,121,122,123,124,125,126,127,128,129,130,131,132,133,134,135,136,137,138,139,140,141,142,143,144,145,146,147,148,149,150,151,152,153,154,155,156,157,158,159,160,161,162,163,164,165,166,167,168,169,170,171,172,173,174,175,176,177,178,179,180,181,182,183,184,185,186,187,188,189,190,191,192,193,194,195,196,197,198,199,200,201,202,203,204,205,206,207,208,209,210,2,2,2,2,2,2,3,3,3,3,3,3,4,4,11,11,11,11,11,11,14,14,14,14,18,18,18,18,22,22,26,26,26,26,26,26,27,27,30,30,38,38,49,49,73,74,75,76,77,78,79,80,81,82,83,84,85,86,87,88,89,90,91,92,93,94,95,96,97,98,99,100,101,102,103,104,105,106,107,108,109,110,111,112,113,114,115,116,117,118,119,120,121,122,123,124,125,126,127,128,129,130,131,132,133,134,135,136,137,138,139,140,141,142,143,144,145,146,147,148,149,150,151,152,153,154,155,156,157,158,159,160,161,162,163,164,165,166,167,168,169,170,171,172,173,174,175,176,177,178,179,180,181,182,183,184,185,186,187,188,189,190,191,192,193,194,195,196,197,198,199,200,201,202,203,204,205,206,207,208,209,210];

precedenceAdjList = [[],[],[245],[],[],[],[],[],[],[],[253],[],[],[],[],[],[],[24],[],[],[17],[],[],[243],[34],[255],[],[],[],[269],[],[],[],[277],[],[],[],[],[],[],[241],[],[],[],[279],[257],[],[],[],[],[87],[275],[271],[],[259],[],[29],[],[],[],[249],[],[281],[],[],[],[],[],[],[247],[],[],[],[],[265],[263],[],[],[],[],[],[],[],[],[],[],[62],[261],[],[267],[],[],[239],[273],[],[],[],[],[251],[],[],[],[],[],[],[],[],[],[],[],[],[],[],[],[],[],[],[],[],[],[],[],[],[],[],[],[],[],[],[],[],[],[],[],[],[],[],[],[],[],[],[],[],[],[],[],[],[],[],[],[],[],[],[],[],[],[],[],[],[],[],[],[],[],[],[],[],[],[],[],[],[],[],[],[],[],[],[],[],[],[],[],[],[],[],[],[],[],[],[],[],[],[],[],[],[],[],[],[],[],[],[],[],[],[],[],[],[],[],[],[],[],[],[],[],[],[],[],[],[],[],[],[],[],[],[],[],[],[],[],[],[],[],[],[],[],[],[],[1],[238],[92],[240],[40],[242],[69],[244],[60],[246],[79],[248],[3],[250],[96],[252],[10],[254],[25],[256],[13],[258],[54],[260],[20],[262],[75],[264],[22],[266],[35],[268],[29],[270],[52],[272],[30],[274],[85],[276],[90],[278],[81],[280],[100],[101],[102],[103],[104],[105],[106],[107],[108],[109],[110],[111],[112],[113],[114],[115],[116],[117],[118],[119],[120],[121],[122],[123],[124],[125],[126],[127],[128],[129],[130],[131],[132],[133],[134],[135],[136],[137],[138],[139],[140],[141],[142],[143],[144],[145],[146],[147],[148],[149],[150],[151],[152],[153],[154],[155],[156],[157],[158],[159],[160],[161],[162],[163],[164],[165],[166],[167],[168],[169],[170],[171],[172],[173],[174],[175],[176],[177],[178],[179],[180],[181],[182],[183],[184],[185],[186],[187],[188],[189],[190],[191],[192],[193],[194],[195],[196],[197],[198],[199],[200],[201],[202],[203],[204],[205],[206],[207],[208],[209],[210],[211],[212],[213],[214],[215],[216],[217],[218],[219],[220],[221],[222],[223],[224],[225],[226],[227],[228],[229],[230],[231],[232],[233],[234],[235],[236],[237]];